\ENCODING=ISO-8859-1
\Problem name: ilog.cplex

Minimize
 obj1: 101502 x1 + 91623 x2 + 109598 x3 + 108920 x4 + 97747 x5 + 96257 x6
       + 93506 x7 + 106627 x8 + 100194 x9 + 93196 x10 + 103128 x11 + 98549 x12
       + 95689 x13 + 101774 x14 + 98981 x15 + 92551 x16 + 98010 x17 + 97052 x18
       + 98841 x19 + 99276 x20 + 106202 x21 + 106802 x22 + 106235 x23
       + 92848 x24 + 91272 x25 + 91024 x26 + 104993 x27 + 106899 x28
       + 109544 x29 + 106084 x30 + 108996 x31 + 94269 x32 + 94058 x33
       + 105794 x34 + 94724 x35 + 106784 x36 + 104206 x37 + 102516 x38
       + 108260 x39 + 90060 x40 + 98191 x41 + 102816 x42 + 108155 x43
       + 97578 x44 + 92875 x45 + 104241 x46 + 100846 x47 + 108091 x48
       + 91294 x49 + 92469 x50 + 91378 x51 + 98257 x52 + 105047 x53 + 99867 x54
       + 92512 x55 + 95134 x56 + 108712 x57 + 95635 x58 + 104971 x59
       + 96562 x60 + 100512 x61 + 109335 x62 + 101922 x63 + 102618 x64
       + 103553 x65 + 104355 x66 + 95738 x67 + 103002 x68 + 109782 x69
       + 98028 x70 + 90191 x71 + 97553 x72 + 94879 x73 + 104780 x74 + 95184 x75
       + 90006 x76 + 99221 x77 + 107038 x78 + 107163 x79 + 102798 x80
       + 95920 x81 + 98086 x82 + 96681 x83 + 92352 x84 + 92996 x85 + 92906 x86
       + 103486 x87 + 101450 x88 + 93536 x89 + 90599 x90 + 99065 x91
       + 108137 x92 + 105021 x93 + 95105 x94 + 96760 x95 + 99071 x96
       + 107005 x97 + 99711 x98 + 90350 x99 + 109298 x100 + 90162 x101
       + 97149 x102 + 91881 x103 + 94124 x104 + 92355 x105 + 91942 x106
       + 90013 x107 + 101685 x108 + 102110 x109 + 92094 x110 + 97193 x111
       + 106214 x112 + 105098 x113 + 95339 x114 + 104673 x115 + 94905 x116
       + 94792 x117 + 101026 x118 + 109897 x119 + 94190 x120 + 109920 x121
       + 105566 x122 + 99275 x123 + 91617 x124 + 99053 x125 + 92244 x126
       + 109413 x127 + 97295 x128 + 109486 x129 + 104605 x130 + 104329 x131
       + 101165 x132 + 102251 x133 + 96852 x134 + 101226 x135 + 109367 x136
       + 105456 x137 + 109547 x138 + 108026 x139 + 90688 x140 + 94081 x141
       + 104420 x142 + 102151 x143 + 92347 x144 + 105960 x145 + 108171 x146
       + 101908 x147 + 93318 x148 + 90874 x149 + 101928 x150 + 90343 x151
       + 96941 x152 + 102695 x153 + 101580 x154 + 92338 x155 + 97895 x156
       + 99986 x157 + 102152 x158 + 94089 x159 + 106970 x160 + 93883 x161
       + 103628 x162 + 94112 x163 + 95358 x164 + 105212 x165 + 105279 x166
       + 90141 x167 + 101475 x168 + 95756 x169 + 101882 x170 + 108006 x171
       + 109482 x172 + 94776 x173 + 105272 x174 + 93810 x175 + 94604 x176
       + 104947 x177 + 108881 x178 + 102468 x179 + 106794 x180 + 104359 x181
       + 90209 x182 + 97995 x183 + 102437 x184 + 96420 x185 + 109576 x186
       + 93971 x187 + 107562 x188 + 95265 x189 + 92628 x190 + 106168 x191
       + 105411 x192 + 90758 x193 + 98760 x194 + 103609 x195 + 106241 x196
       + 94154 x197 + 97941 x198 + 109160 x199 + 97892 x200 + 91894 x201
       + 103978 x202 + 107232 x203 + 94568 x204 + 91818 x205 + 104764 x206
       + 95084 x207 + 93751 x208 + 98054 x209 + 98699 x210 + 95132 x211
       + 102630 x212 + 106385 x213 + 109769 x214 + 94733 x215 + 98084 x216
       + 96468 x217 + 99360 x218 + 108474 x219 + 107375 x220 + 100722 x221
       + 91108 x222 + 92878 x223 + 106470 x224 + 94188 x225 + 94097 x226
       + 96440 x227 + 106888 x228 + 91502 x229 + 107072 x230 + 103609 x231
       + 104089 x232 + 98454 x233 + 109670 x234 + 107886 x235 + 91515 x236
       + 102460 x237 + 90578 x238 + 91456 x239 + 106154 x240 + 98819 x241
       + 107075 x242 + 96571 x243 + 103842 x244 + 97749 x245 + 95610 x246
       + 107380 x247 + 105519 x248 + 100985 x249 + 98839 x250 + 101004 x251
       + 103095 x252 + 107170 x253 + 91783 x254 + 90558 x255 + 102398 x256
       + 100983 x257 + 107770 x258 + 96637 x259 + 96906 x260 + 95931 x261
       + 99763 x262 + 94264 x263 + 98119 x264 + 108256 x265 + 101102 x266
       + 102115 x267 + 109279 x268 + 108720 x269 + 100847 x270 + 106200 x271
       + 95173 x272 + 101729 x273 + 90882 x274 + 93027 x275 + 91342 x276
       + 107665 x277 + 103490 x278 + 106572 x279 + 105603 x280 + 94680 x281
       + 105205 x282 + 94847 x283 + 94520 x284 + 95419 x285 + 92810 x286
       + 103871 x287 + 92798 x288 + 103990 x289 + 92950 x290 + 109561 x291
       + 94504 x292 + 99014 x293 + 98136 x294 + 91326 x295 + 91642 x296
       + 99693 x297 + 98776 x298 + 105100 x299 + 107764 x300 + 102190 x301
       + 96915 x302 + 97579 x303 + 102657 x304 + 103806 x305 + 102099 x306
       + 105029 x307 + 102686 x308 + 102553 x309 + 109027 x310 + 105390 x311
       + 101956 x312 + 101369 x313 + 93063 x314 + 106177 x315 + 101399 x316
       + 91717 x317 + 105863 x318 + 108641 x319 + 109568 x320 + 101781 x321
       + 101442 x322 + 102774 x323 + 109030 x324 + 97978 x325 + 105802 x326
       + 98774 x327 + 100340 x328 + 97662 x329 + 105214 x330 + 99821 x331
       + 94747 x332 + 93714 x333 + 95565 x334 + 104128 x335 + 107018 x336
       + 100180 x337 + 93239 x338 + 103001 x339 + 100519 x340 + 102186 x341
       + 96543 x342 + 96073 x343 + 98145 x344 + 93078 x345 + 105976 x346
       + 94842 x347 + 94740 x348 + 107074 x349 + 101488 x350 + 95351 x351
       + 109941 x352 + 98620 x353 + 100455 x354 + 90397 x355 + 97449 x356
       + 97803 x357 + 109873 x358 + 95110 x359 + 98667 x360 + 97915 x361
       + 109921 x362 + 99410 x363 + 93358 x364 + 95846 x365 + 103963 x366
       + 97978 x367 + 93830 x368 + 97582 x369 + 90537 x370 + 101560 x371
       + 102001 x372 + 102310 x373 + 105418 x374 + 100951 x375 + 99741 x376
       + 101932 x377 + 92359 x378 + 103194 x379 + 96956 x380 + 98178 x381
       + 91899 x382 + 105055 x383 + 108140 x384 + 107862 x385 + 99191 x386
       + 104900 x387 + 90018 x388 + 95706 x389 + 109067 x390 + 100897 x391
       + 90424 x392 + 103737 x393 + 99303 x394 + 100764 x395 + 91694 x396
       + 96420 x397 + 101602 x398 + 96336 x399 + 100642 x400 + 101560 x401
       + 98007 x402 + 96608 x403 + 107601 x404 + 108711 x405 + 94661 x406
       + 93379 x407 + 98283 x408 + 90442 x409 + 95177 x410 + 92600 x411
       + 100190 x412 + 108290 x413 + 99504 x414 + 99084 x415 + 97115 x416
       + 101361 x417 + 104590 x418 + 92290 x419 + 90868 x420 + 108789 x421
       + 102489 x422 + 107913 x423 + 102541 x424 + 101204 x425 + 108902 x426
       + 102359 x427 + 107100 x428 + 105941 x429 + 101030 x430 + 108832 x431
       + 104559 x432 + 100072 x433 + 100034 x434 + 108428 x435 + 105249 x436
       + 90414 x437 + 90468 x438 + 99989 x439 + 91540 x440 + 100261 x441
       + 106714 x442 + 98430 x443 + 93858 x444 + 98898 x445 + 94732 x446
       + 102797 x447 + 104991 x448 + 101821 x449 + 96407 x450 + 103280 x451
       + 93596 x452 + 103280 x453 + 96653 x454 + 106664 x455 + 103171 x456
       + 108473 x457 + 109283 x458 + 91903 x459 + 98601 x460 + 93133 x461
       + 108103 x462 + 106015 x463 + 92330 x464 + 94825 x465 + 93271 x466
       + 109958 x467 + 102837 x468 + 92758 x469 + 97983 x470 + 109454 x471
       + 101050 x472 + 105772 x473 + 106239 x474 + 101628 x475 + 108751 x476
       + 95398 x477 + 108005 x478 + 98599 x479 + 107592 x480 + 91098 x481
       + 109886 x482 + 93761 x483 + 105233 x484 + 107160 x485 + 107552 x486
       + 101619 x487 + 98519 x488 + 103714 x489 + 109955 x490 + 107891 x491
       + 92719 x492 + 97937 x493 + 104754 x494 + 92984 x495 + 100557 x496
       + 95759 x497 + 109377 x498 + 99003 x499 + 22080 x500 + 391961 x501
       + 362174 x502 + 439703 x503 + 390927 x504 + 409550 x505 + 407801 x506
       + 384810 x507 + 372071 x508 + 364718 x509 + 369648 x510 + 423195 x511
       + 378738 x512 + 361579 x513 + 437745 x514 + 409987 x515 + 427208 x516
       + 394508 x517 + 407767 x518 + 418967 x519 + 433674 x520 + 400515 x521
       + 435623 x522 + 361769 x523 + 360827 x524 + 416049 x525 + 409352 x526
       + 407920 x527 + 424393 x528 + 413729 x529 + 384859 x530 + 434993 x531
       + 429615 x532 + 403925 x533 + 425869 x534 + 361370 x535 + 425279 x536
       + 363131 x537 + 389754 x538 + 364800 x539 + 407932 x540 + 415445 x541
       + 389782 x542 + 428151 x543 + 381552 x544 + 365491 x545 + 360601 x546
       + 379445 x547 + 397977 x548 + 400535 x549 + 472586 x550
Subject To
 c1:   x2 - x4 + x7 - x14 + x24 + x29 - x37 - x41 - x45 - x46 + x48 + x49  = 0
 c2:   x52 - x54 + x57 - x64 + x74 + x79 - x87 - x91 - x95 - x96 + x98 + x99
        = 0
 c3:   x102 - x104 + x107 - x114 + x124 + x129 - x137 - x141 - x145 - x146
       + x148 + x149  = 0
 c4:   x152 - x154 + x157 - x164 + x174 + x179 - x187 - x191 - x195 - x196
       + x198 + x199  = 0
 c5:   x202 - x204 + x207 - x214 + x224 + x229 - x237 - x241 - x245 - x246
       + x248 + x249  = 0
 c6:   x252 - x254 + x257 - x264 + x274 + x279 - x287 - x291 - x295 - x296
       + x298 + x299  = 0
 c7:   x302 - x304 + x307 - x314 + x324 + x329 - x337 - x341 - x345 - x346
       + x348 + x349  = 0
 c8:   x352 - x354 + x357 - x364 + x374 + x379 - x387 - x391 - x395 - x396
       + x398 + x399  = 0
 c9:   x402 - x404 + x407 - x414 + x424 + x429 - x437 - x441 - x445 - x446
       + x448 + x449  = 0
 c10:  x452 - x454 + x457 - x464 + x474 + x479 - x487 - x491 - x495 - x496
       + x498 + x499  = 0
 c11:  - x2 + x8 + x11 + x14 - x16 - x19 + x22 - x32 + x35 - x38 + x40  = 0
 c12:  - x52 + x58 + x61 + x64 - x66 - x69 + x72 - x82 + x85 - x88 + x90  = 0
 c13:  - x102 + x108 + x111 + x114 - x116 - x119 + x122 - x132 + x135 - x138
       + x140  = 0
 c14:  - x152 + x158 + x161 + x164 - x166 - x169 + x172 - x182 + x185 - x188
       + x190  = 1
 c15:  - x202 + x208 + x211 + x214 - x216 - x219 + x222 - x232 + x235 - x238
       + x240  = 0
 c16:  - x252 + x258 + x261 + x264 - x266 - x269 + x272 - x282 + x285 - x288
       + x290  = 0
 c17:  - x302 + x308 + x311 + x314 - x316 - x319 + x322 - x332 + x335 - x338
       + x340  = 1
 c18:  - x352 + x358 + x361 + x364 - x366 - x369 + x372 - x382 + x385 - x388
       + x390  = 0
 c19:  - x402 + x408 + x411 + x414 - x416 - x419 + x422 - x432 + x435 - x438
       + x440  = 1
 c20:  - x452 + x458 + x461 + x464 - x466 - x469 + x472 - x482 + x485 - x488
       + x490  = 1
 c21:  - x5 - x7 - x31 + x33 + x36 + x37 - x43  = 0
 c22:  - x55 - x57 - x81 + x83 + x86 + x87 - x93  = 0
 c23:  - x105 - x107 - x131 + x133 + x136 + x137 - x143  = 1
 c24:  - x155 - x157 - x181 + x183 + x186 + x187 - x193  = 0
 c25:  - x205 - x207 - x231 + x233 + x236 + x237 - x243  = 0
 c26:  - x255 - x257 - x281 + x283 + x286 + x287 - x293  = 0
 c27:  - x305 - x307 - x331 + x333 + x336 + x337 - x343  = 0
 c28:  - x355 - x357 - x381 + x383 + x386 + x387 - x393  = 0
 c29:  - x405 - x407 - x431 + x433 + x436 + x437 - x443  = -1
 c30:  - x455 - x457 - x481 + x483 + x486 + x487 - x493  = 0
 c31:  - x3 + x10 - x12 + x13 + x17 + x19 + x20 - x27 + x28 - x30 + x31 - x40
        = 0
 c32:  - x53 + x60 - x62 + x63 + x67 + x69 + x70 - x77 + x78 - x80 + x81 - x90
        = 0
 c33:  - x103 + x110 - x112 + x113 + x117 + x119 + x120 - x127 + x128 - x130
       + x131 - x140  = 0
 c34:  - x153 + x160 - x162 + x163 + x167 + x169 + x170 - x177 + x178 - x180
       + x181 - x190  = 0
 c35:  - x203 + x210 - x212 + x213 + x217 + x219 + x220 - x227 + x228 - x230
       + x231 - x240  = -1
 c36:  - x253 + x260 - x262 + x263 + x267 + x269 + x270 - x277 + x278 - x280
       + x281 - x290  = -1
 c37:  - x303 + x310 - x312 + x313 + x317 + x319 + x320 - x327 + x328 - x330
       + x331 - x340  = 0
 c38:  - x353 + x360 - x362 + x363 + x367 + x369 + x370 - x377 + x378 - x380
       + x381 - x390  = 0
 c39:  - x403 + x410 - x412 + x413 + x417 + x419 + x420 - x427 + x428 - x430
       + x431 - x440  = 0
 c40:  - x453 + x460 - x462 + x463 + x467 + x469 + x470 - x477 + x478 - x480
       + x481 - x490  = -1
 c41:  x4 - x8 - x10 - x18 + x21 + x23 - x25 - x29 + x30 - x44  = 0
 c42:  x54 - x58 - x60 - x68 + x71 + x73 - x75 - x79 + x80 - x94  = 0
 c43:  x104 - x108 - x110 - x118 + x121 + x123 - x125 - x129 + x130 - x144  = 0
 c44:  x154 - x158 - x160 - x168 + x171 + x173 - x175 - x179 + x180 - x194  = 0
 c45:  x204 - x208 - x210 - x218 + x221 + x223 - x225 - x229 + x230 - x244  = 0
 c46:  x254 - x258 - x260 - x268 + x271 + x273 - x275 - x279 + x280 - x294  = 0
 c47:  x304 - x308 - x310 - x318 + x321 + x323 - x325 - x329 + x330 - x344  = 0
 c48:  x354 - x358 - x360 - x368 + x371 + x373 - x375 - x379 + x380 - x394  = 0
 c49:  x404 - x408 - x410 - x418 + x421 + x423 - x425 - x429 + x430 - x444  = 0
 c50:  x454 - x458 - x460 - x468 + x471 + x473 - x475 - x479 + x480 - x494  = 0
 c51:  x3 - x6 - x17 - x22 + x32 + x34 + x39 + x44  = 0
 c52:  x53 - x56 - x67 - x72 + x82 + x84 + x89 + x94  = 1
 c53:  x103 - x106 - x117 - x122 + x132 + x134 + x139 + x144  = 0
 c54:  x153 - x156 - x167 - x172 + x182 + x184 + x189 + x194  = 0
 c55:  x203 - x206 - x217 - x222 + x232 + x234 + x239 + x244  = 0
 c56:  x253 - x256 - x267 - x272 + x282 + x284 + x289 + x294  = 0
 c57:  x303 - x306 - x317 - x322 + x332 + x334 + x339 + x344  = 0
 c58:  x353 - x356 - x367 - x372 + x382 + x384 + x389 + x394  = 0
 c59:  x403 - x406 - x417 - x422 + x432 + x434 + x439 + x444  = 0
 c60:  x453 - x456 - x467 - x472 + x482 + x484 + x489 + x494  = 0
 c61:  x1 + x5 - x23 - x24 - x26 - x28 - x34 - x35 - x36 + x38 + x41  = -1
 c62:  x51 + x55 - x73 - x74 - x76 - x78 - x84 - x85 - x86 + x88 + x91  = 0
 c63:  x101 + x105 - x123 - x124 - x126 - x128 - x134 - x135 - x136 + x138
       + x141  = -1
 c64:  x151 + x155 - x173 - x174 - x176 - x178 - x184 - x185 - x186 + x188
       + x191  = -1
 c65:  x201 + x205 - x223 - x224 - x226 - x228 - x234 - x235 - x236 + x238
       + x241  = 0
 c66:  x251 + x255 - x273 - x274 - x276 - x278 - x284 - x285 - x286 + x288
       + x291  = 0
 c67:  x301 + x305 - x323 - x324 - x326 - x328 - x334 - x335 - x336 + x338
       + x341  = 0
 c68:  x351 + x355 - x373 - x374 - x376 - x378 - x384 - x385 - x386 + x388
       + x391  = 0
 c69:  x401 + x405 - x423 - x424 - x426 - x428 - x434 - x435 - x436 + x438
       + x441  = 0
 c70:  x451 + x455 - x473 - x474 - x476 - x478 - x484 - x485 - x486 + x488
       + x491  = 0
 c71:  x15 - x20 + x43 - x47 - x49 - x50  = 0
 c72:  x65 - x70 + x93 - x97 - x99 - x100  = 0
 c73:  x115 - x120 + x143 - x147 - x149 - x150  = 0
 c74:  x165 - x170 + x193 - x197 - x199 - x200  = 0
 c75:  x215 - x220 + x243 - x247 - x249 - x250  = 1
 c76:  x265 - x270 + x293 - x297 - x299 - x300  = 0
 c77:  x315 - x320 + x343 - x347 - x349 - x350  = 0
 c78:  x365 - x370 + x393 - x397 - x399 - x400  = 0
 c79:  x415 - x420 + x443 - x447 - x449 - x450  = 0
 c80:  x465 - x470 + x493 - x497 - x499 - x500  = 0
 c81:  - x9 + x12 - x13 + x25 + x26 + x42 + x46 - x48 + x50  = 0
 c82:  - x59 + x62 - x63 + x75 + x76 + x92 + x96 - x98 + x100  = 0
 c83:  - x109 + x112 - x113 + x125 + x126 + x142 + x146 - x148 + x150  = 0
 c84:  - x159 + x162 - x163 + x175 + x176 + x192 + x196 - x198 + x200  = 0
 c85:  - x209 + x212 - x213 + x225 + x226 + x242 + x246 - x248 + x250  = 0
 c86:  - x259 + x262 - x263 + x275 + x276 + x292 + x296 - x298 + x300  = 0
 c87:  - x309 + x312 - x313 + x325 + x326 + x342 + x346 - x348 + x350  = 0
 c88:  - x359 + x362 - x363 + x375 + x376 + x392 + x396 - x398 + x400  = -1
 c89:  - x409 + x412 - x413 + x425 + x426 + x442 + x446 - x448 + x450  = 0
 c90:  - x459 + x462 - x463 + x475 + x476 + x492 + x496 - x498 + x500  = 0
 c91:  - x1 + x6 + x9 - x11 - x15 + x16 + x18 - x21 + x27 - x33 - x39 - x42
       + x45 + x47  = 1
 c92:  - x51 + x56 + x59 - x61 - x65 + x66 + x68 - x71 + x77 - x83 - x89 - x92
       + x95 + x97  = -1
 c93:  - x101 + x106 + x109 - x111 - x115 + x116 + x118 - x121 + x127 - x133
       - x139 - x142 + x145 + x147  = 0
 c94:  - x151 + x156 + x159 - x161 - x165 + x166 + x168 - x171 + x177 - x183
       - x189 - x192 + x195 + x197  = 0
 c95:  - x201 + x206 + x209 - x211 - x215 + x216 + x218 - x221 + x227 - x233
       - x239 - x242 + x245 + x247  = 0
 c96:  - x251 + x256 + x259 - x261 - x265 + x266 + x268 - x271 + x277 - x283
       - x289 - x292 + x295 + x297  = 1
 c97:  - x301 + x306 + x309 - x311 - x315 + x316 + x318 - x321 + x327 - x333
       - x339 - x342 + x345 + x347  = -1
 c98:  - x351 + x356 + x359 - x361 - x365 + x366 + x368 - x371 + x377 - x383
       - x389 - x392 + x395 + x397  = 1
 c99:  - x401 + x406 + x409 - x411 - x415 + x416 + x418 - x421 + x427 - x433
       - x439 - x442 + x445 + x447  = 0
 c100: - x451 + x456 + x459 - x461 - x465 + x466 + x468 - x471 + x477 - x483
       - x489 - x492 + x495 + x497  = 0
 c101: 4 x1 + 4 x51 + 4 x101 + 4 x151 + 4 x201 + 4 x251 + 4 x301 + 4 x351
       + 4 x401 + 4 x451 - 20 x501 <= 0
 c102: 4 x2 + 4 x52 + 4 x102 + 4 x152 + 4 x202 + 4 x252 + 4 x302 + 4 x352
       + 4 x402 + 4 x452 - 18 x502 <= 0
 c103: 4 x3 + 4 x53 + 4 x103 + 4 x153 + 4 x203 + 4 x253 + 4 x303 + 4 x353
       + 4 x403 + 4 x453 - 19 x503 <= 0
 c104: 4 x4 + 4 x54 + 4 x104 + 4 x154 + 4 x204 + 4 x254 + 4 x304 + 4 x354
       + 4 x404 + 4 x454 - 19 x504 <= 0
 c105: 4 x5 + 4 x55 + 4 x105 + 4 x155 + 4 x205 + 4 x255 + 4 x305 + 4 x355
       + 4 x405 + 4 x455 - 19 x505 <= 0
 c106: 4 x6 + 4 x56 + 4 x106 + 4 x156 + 4 x206 + 4 x256 + 4 x306 + 4 x356
       + 4 x406 + 4 x456 - 21 x506 <= 0
 c107: 4 x7 + 4 x57 + 4 x107 + 4 x157 + 4 x207 + 4 x257 + 4 x307 + 4 x357
       + 4 x407 + 4 x457 - 22 x507 <= 0
 c108: 4 x8 + 4 x58 + 4 x108 + 4 x158 + 4 x208 + 4 x258 + 4 x308 + 4 x358
       + 4 x408 + 4 x458 - 20 x508 <= 0
 c109: 4 x9 + 4 x59 + 4 x109 + 4 x159 + 4 x209 + 4 x259 + 4 x309 + 4 x359
       + 4 x409 + 4 x459 - 21 x509 <= 0
 c110: 4 x10 + 4 x60 + 4 x110 + 4 x160 + 4 x210 + 4 x260 + 4 x310 + 4 x360
       + 4 x410 + 4 x460 - 22 x510 <= 0
 c111: 4 x11 + 4 x61 + 4 x111 + 4 x161 + 4 x211 + 4 x261 + 4 x311 + 4 x361
       + 4 x411 + 4 x461 - 20 x511 <= 0
 c112: 4 x12 + 4 x62 + 4 x112 + 4 x162 + 4 x212 + 4 x262 + 4 x312 + 4 x362
       + 4 x412 + 4 x462 - 18 x512 <= 0
 c113: 4 x13 + 4 x63 + 4 x113 + 4 x163 + 4 x213 + 4 x263 + 4 x313 + 4 x363
       + 4 x413 + 4 x463 - 21 x513 <= 0
 c114: 4 x14 + 4 x64 + 4 x114 + 4 x164 + 4 x214 + 4 x264 + 4 x314 + 4 x364
       + 4 x414 + 4 x464 - 19 x514 <= 0
 c115: 4 x15 + 4 x65 + 4 x115 + 4 x165 + 4 x215 + 4 x265 + 4 x315 + 4 x365
       + 4 x415 + 4 x465 - 18 x515 <= 0
 c116: 4 x16 + 4 x66 + 4 x116 + 4 x166 + 4 x216 + 4 x266 + 4 x316 + 4 x366
       + 4 x416 + 4 x466 - 20 x516 <= 0
 c117: 4 x17 + 4 x67 + 4 x117 + 4 x167 + 4 x217 + 4 x267 + 4 x317 + 4 x367
       + 4 x417 + 4 x467 - 22 x517 <= 0
 c118: 4 x18 + 4 x68 + 4 x118 + 4 x168 + 4 x218 + 4 x268 + 4 x318 + 4 x368
       + 4 x418 + 4 x468 - 20 x518 <= 0
 c119: 4 x19 + 4 x69 + 4 x119 + 4 x169 + 4 x219 + 4 x269 + 4 x319 + 4 x369
       + 4 x419 + 4 x469 - 20 x519 <= 0
 c120: 4 x20 + 4 x70 + 4 x120 + 4 x170 + 4 x220 + 4 x270 + 4 x320 + 4 x370
       + 4 x420 + 4 x470 - 22 x520 <= 0
 c121: 4 x21 + 4 x71 + 4 x121 + 4 x171 + 4 x221 + 4 x271 + 4 x321 + 4 x371
       + 4 x421 + 4 x471 - 18 x521 <= 0
 c122: 4 x22 + 4 x72 + 4 x122 + 4 x172 + 4 x222 + 4 x272 + 4 x322 + 4 x372
       + 4 x422 + 4 x472 - 18 x522 <= 0
 c123: 4 x23 + 4 x73 + 4 x123 + 4 x173 + 4 x223 + 4 x273 + 4 x323 + 4 x373
       + 4 x423 + 4 x473 - 18 x523 <= 0
 c124: 4 x24 + 4 x74 + 4 x124 + 4 x174 + 4 x224 + 4 x274 + 4 x324 + 4 x374
       + 4 x424 + 4 x474 - 21 x524 <= 0
 c125: 4 x25 + 4 x75 + 4 x125 + 4 x175 + 4 x225 + 4 x275 + 4 x325 + 4 x375
       + 4 x425 + 4 x475 - 19 x525 <= 0
 c126: 4 x26 + 4 x76 + 4 x126 + 4 x176 + 4 x226 + 4 x276 + 4 x326 + 4 x376
       + 4 x426 + 4 x476 - 20 x526 <= 0
 c127: 4 x27 + 4 x77 + 4 x127 + 4 x177 + 4 x227 + 4 x277 + 4 x327 + 4 x377
       + 4 x427 + 4 x477 - 21 x527 <= 0
 c128: 4 x28 + 4 x78 + 4 x128 + 4 x178 + 4 x228 + 4 x278 + 4 x328 + 4 x378
       + 4 x428 + 4 x478 - 18 x528 <= 0
 c129: 4 x29 + 4 x79 + 4 x129 + 4 x179 + 4 x229 + 4 x279 + 4 x329 + 4 x379
       + 4 x429 + 4 x479 - 21 x529 <= 0
 c130: 4 x30 + 4 x80 + 4 x130 + 4 x180 + 4 x230 + 4 x280 + 4 x330 + 4 x380
       + 4 x430 + 4 x480 - 21 x530 <= 0
 c131: 4 x31 + 4 x81 + 4 x131 + 4 x181 + 4 x231 + 4 x281 + 4 x331 + 4 x381
       + 4 x431 + 4 x481 - 19 x531 <= 0
 c132: 4 x32 + 4 x82 + 4 x132 + 4 x182 + 4 x232 + 4 x282 + 4 x332 + 4 x382
       + 4 x432 + 4 x482 - 18 x532 <= 0
 c133: 4 x33 + 4 x83 + 4 x133 + 4 x183 + 4 x233 + 4 x283 + 4 x333 + 4 x383
       + 4 x433 + 4 x483 - 20 x533 <= 0
 c134: 4 x34 + 4 x84 + 4 x134 + 4 x184 + 4 x234 + 4 x284 + 4 x334 + 4 x384
       + 4 x434 + 4 x484 - 20 x534 <= 0
 c135: 4 x35 + 4 x85 + 4 x135 + 4 x185 + 4 x235 + 4 x285 + 4 x335 + 4 x385
       + 4 x435 + 4 x485 - 21 x535 <= 0
 c136: 4 x36 + 4 x86 + 4 x136 + 4 x186 + 4 x236 + 4 x286 + 4 x336 + 4 x386
       + 4 x436 + 4 x486 - 19 x536 <= 0
 c137: 4 x37 + 4 x87 + 4 x137 + 4 x187 + 4 x237 + 4 x287 + 4 x337 + 4 x387
       + 4 x437 + 4 x487 - 21 x537 <= 0
 c138: 4 x38 + 4 x88 + 4 x138 + 4 x188 + 4 x238 + 4 x288 + 4 x338 + 4 x388
       + 4 x438 + 4 x488 - 20 x538 <= 0
 c139: 4 x39 + 4 x89 + 4 x139 + 4 x189 + 4 x239 + 4 x289 + 4 x339 + 4 x389
       + 4 x439 + 4 x489 - 19 x539 <= 0
 c140: 4 x40 + 4 x90 + 4 x140 + 4 x190 + 4 x240 + 4 x290 + 4 x340 + 4 x390
       + 4 x440 + 4 x490 - 20 x540 <= 0
 c141: 4 x41 + 4 x91 + 4 x141 + 4 x191 + 4 x241 + 4 x291 + 4 x341 + 4 x391
       + 4 x441 + 4 x491 - 20 x541 <= 0
 c142: 4 x42 + 4 x92 + 4 x142 + 4 x192 + 4 x242 + 4 x292 + 4 x342 + 4 x392
       + 4 x442 + 4 x492 - 20 x542 <= 0
 c143: 4 x43 + 4 x93 + 4 x143 + 4 x193 + 4 x243 + 4 x293 + 4 x343 + 4 x393
       + 4 x443 + 4 x493 - 22 x543 <= 0
 c144: 4 x44 + 4 x94 + 4 x144 + 4 x194 + 4 x244 + 4 x294 + 4 x344 + 4 x394
       + 4 x444 + 4 x494 - 19 x544 <= 0
 c145: 4 x45 + 4 x95 + 4 x145 + 4 x195 + 4 x245 + 4 x295 + 4 x345 + 4 x395
       + 4 x445 + 4 x495 - 20 x545 <= 0
 c146: 4 x46 + 4 x96 + 4 x146 + 4 x196 + 4 x246 + 4 x296 + 4 x346 + 4 x396
       + 4 x446 + 4 x496 - 20 x546 <= 0
 c147: 4 x47 + 4 x97 + 4 x147 + 4 x197 + 4 x247 + 4 x297 + 4 x347 + 4 x397
       + 4 x447 + 4 x497 - 22 x547 <= 0
 c148: 4 x48 + 4 x98 + 4 x148 + 4 x198 + 4 x248 + 4 x298 + 4 x348 + 4 x398
       + 4 x448 + 4 x498 - 21 x548 <= 0
 c149: 4 x49 + 4 x99 + 4 x149 + 4 x199 + 4 x249 + 4 x299 + 4 x349 + 4 x399
       + 4 x449 + 4 x499 - 20 x549 <= 0
 c150: 4 x50 + 4 x100 + 4 x150 + 4 x200 + 4 x250 + 4 x300 + 4 x350 + 4 x400
       + 4 x450 + 4 x500 - 23 x550 <= 0
Bounds
 0 <= x1 <= 1
 0 <= x2 <= 1
 0 <= x3 <= 1
 0 <= x4 <= 1
 0 <= x5 <= 1
 0 <= x6 <= 1
 0 <= x7 <= 1
 0 <= x8 <= 1
 0 <= x9 <= 1
 0 <= x10 <= 1
 0 <= x11 <= 1
 0 <= x12 <= 1
 0 <= x13 <= 1
 0 <= x14 <= 1
 0 <= x15 <= 1
 0 <= x16 <= 1
 0 <= x17 <= 1
 0 <= x18 <= 1
 0 <= x19 <= 1
 0 <= x20 <= 1
 0 <= x21 <= 1
 0 <= x22 <= 1
 0 <= x23 <= 1
 0 <= x24 <= 1
 0 <= x25 <= 1
 0 <= x26 <= 1
 0 <= x27 <= 1
 0 <= x28 <= 1
 0 <= x29 <= 1
 0 <= x30 <= 1
 0 <= x31 <= 1
 0 <= x32 <= 1
 0 <= x33 <= 1
 0 <= x34 <= 1
 0 <= x35 <= 1
 0 <= x36 <= 1
 0 <= x37 <= 1
 0 <= x38 <= 1
 0 <= x39 <= 1
 0 <= x40 <= 1
 0 <= x41 <= 1
 0 <= x42 <= 1
 0 <= x43 <= 1
 0 <= x44 <= 1
 0 <= x45 <= 1
 0 <= x46 <= 1
 0 <= x47 <= 1
 0 <= x48 <= 1
 0 <= x49 <= 1
 0 <= x50 <= 1
 0 <= x51 <= 1
 0 <= x52 <= 1
 0 <= x53 <= 1
 0 <= x54 <= 1
 0 <= x55 <= 1
 0 <= x56 <= 1
 0 <= x57 <= 1
 0 <= x58 <= 1
 0 <= x59 <= 1
 0 <= x60 <= 1
 0 <= x61 <= 1
 0 <= x62 <= 1
 0 <= x63 <= 1
 0 <= x64 <= 1
 0 <= x65 <= 1
 0 <= x66 <= 1
 0 <= x67 <= 1
 0 <= x68 <= 1
 0 <= x69 <= 1
 0 <= x70 <= 1
 0 <= x71 <= 1
 0 <= x72 <= 1
 0 <= x73 <= 1
 0 <= x74 <= 1
 0 <= x75 <= 1
 0 <= x76 <= 1
 0 <= x77 <= 1
 0 <= x78 <= 1
 0 <= x79 <= 1
 0 <= x80 <= 1
 0 <= x81 <= 1
 0 <= x82 <= 1
 0 <= x83 <= 1
 0 <= x84 <= 1
 0 <= x85 <= 1
 0 <= x86 <= 1
 0 <= x87 <= 1
 0 <= x88 <= 1
 0 <= x89 <= 1
 0 <= x90 <= 1
 0 <= x91 <= 1
 0 <= x92 <= 1
 0 <= x93 <= 1
 0 <= x94 <= 1
 0 <= x95 <= 1
 0 <= x96 <= 1
 0 <= x97 <= 1
 0 <= x98 <= 1
 0 <= x99 <= 1
 0 <= x100 <= 1
 0 <= x101 <= 1
 0 <= x102 <= 1
 0 <= x103 <= 1
 0 <= x104 <= 1
 0 <= x105 <= 1
 0 <= x106 <= 1
 0 <= x107 <= 1
 0 <= x108 <= 1
 0 <= x109 <= 1
 0 <= x110 <= 1
 0 <= x111 <= 1
 0 <= x112 <= 1
 0 <= x113 <= 1
 0 <= x114 <= 1
 0 <= x115 <= 1
 0 <= x116 <= 1
 0 <= x117 <= 1
 0 <= x118 <= 1
 0 <= x119 <= 1
 0 <= x120 <= 1
 0 <= x121 <= 1
 0 <= x122 <= 1
 0 <= x123 <= 1
 0 <= x124 <= 1
 0 <= x125 <= 1
 0 <= x126 <= 1
 0 <= x127 <= 1
 0 <= x128 <= 1
 0 <= x129 <= 1
 0 <= x130 <= 1
 0 <= x131 <= 1
 0 <= x132 <= 1
 0 <= x133 <= 1
 0 <= x134 <= 1
 0 <= x135 <= 1
 0 <= x136 <= 1
 0 <= x137 <= 1
 0 <= x138 <= 1
 0 <= x139 <= 1
 0 <= x140 <= 1
 0 <= x141 <= 1
 0 <= x142 <= 1
 0 <= x143 <= 1
 0 <= x144 <= 1
 0 <= x145 <= 1
 0 <= x146 <= 1
 0 <= x147 <= 1
 0 <= x148 <= 1
 0 <= x149 <= 1
 0 <= x150 <= 1
 0 <= x151 <= 1
 0 <= x152 <= 1
 0 <= x153 <= 1
 0 <= x154 <= 1
 0 <= x155 <= 1
 0 <= x156 <= 1
 0 <= x157 <= 1
 0 <= x158 <= 1
 0 <= x159 <= 1
 0 <= x160 <= 1
 0 <= x161 <= 1
 0 <= x162 <= 1
 0 <= x163 <= 1
 0 <= x164 <= 1
 0 <= x165 <= 1
 0 <= x166 <= 1
 0 <= x167 <= 1
 0 <= x168 <= 1
 0 <= x169 <= 1
 0 <= x170 <= 1
 0 <= x171 <= 1
 0 <= x172 <= 1
 0 <= x173 <= 1
 0 <= x174 <= 1
 0 <= x175 <= 1
 0 <= x176 <= 1
 0 <= x177 <= 1
 0 <= x178 <= 1
 0 <= x179 <= 1
 0 <= x180 <= 1
 0 <= x181 <= 1
 0 <= x182 <= 1
 0 <= x183 <= 1
 0 <= x184 <= 1
 0 <= x185 <= 1
 0 <= x186 <= 1
 0 <= x187 <= 1
 0 <= x188 <= 1
 0 <= x189 <= 1
 0 <= x190 <= 1
 0 <= x191 <= 1
 0 <= x192 <= 1
 0 <= x193 <= 1
 0 <= x194 <= 1
 0 <= x195 <= 1
 0 <= x196 <= 1
 0 <= x197 <= 1
 0 <= x198 <= 1
 0 <= x199 <= 1
 0 <= x200 <= 1
 0 <= x201 <= 1
 0 <= x202 <= 1
 0 <= x203 <= 1
 0 <= x204 <= 1
 0 <= x205 <= 1
 0 <= x206 <= 1
 0 <= x207 <= 1
 0 <= x208 <= 1
 0 <= x209 <= 1
 0 <= x210 <= 1
 0 <= x211 <= 1
 0 <= x212 <= 1
 0 <= x213 <= 1
 0 <= x214 <= 1
 0 <= x215 <= 1
 0 <= x216 <= 1
 0 <= x217 <= 1
 0 <= x218 <= 1
 0 <= x219 <= 1
 0 <= x220 <= 1
 0 <= x221 <= 1
 0 <= x222 <= 1
 0 <= x223 <= 1
 0 <= x224 <= 1
 0 <= x225 <= 1
 0 <= x226 <= 1
 0 <= x227 <= 1
 0 <= x228 <= 1
 0 <= x229 <= 1
 0 <= x230 <= 1
 0 <= x231 <= 1
 0 <= x232 <= 1
 0 <= x233 <= 1
 0 <= x234 <= 1
 0 <= x235 <= 1
 0 <= x236 <= 1
 0 <= x237 <= 1
 0 <= x238 <= 1
 0 <= x239 <= 1
 0 <= x240 <= 1
 0 <= x241 <= 1
 0 <= x242 <= 1
 0 <= x243 <= 1
 0 <= x244 <= 1
 0 <= x245 <= 1
 0 <= x246 <= 1
 0 <= x247 <= 1
 0 <= x248 <= 1
 0 <= x249 <= 1
 0 <= x250 <= 1
 0 <= x251 <= 1
 0 <= x252 <= 1
 0 <= x253 <= 1
 0 <= x254 <= 1
 0 <= x255 <= 1
 0 <= x256 <= 1
 0 <= x257 <= 1
 0 <= x258 <= 1
 0 <= x259 <= 1
 0 <= x260 <= 1
 0 <= x261 <= 1
 0 <= x262 <= 1
 0 <= x263 <= 1
 0 <= x264 <= 1
 0 <= x265 <= 1
 0 <= x266 <= 1
 0 <= x267 <= 1
 0 <= x268 <= 1
 0 <= x269 <= 1
 0 <= x270 <= 1
 0 <= x271 <= 1
 0 <= x272 <= 1
 0 <= x273 <= 1
 0 <= x274 <= 1
 0 <= x275 <= 1
 0 <= x276 <= 1
 0 <= x277 <= 1
 0 <= x278 <= 1
 0 <= x279 <= 1
 0 <= x280 <= 1
 0 <= x281 <= 1
 0 <= x282 <= 1
 0 <= x283 <= 1
 0 <= x284 <= 1
 0 <= x285 <= 1
 0 <= x286 <= 1
 0 <= x287 <= 1
 0 <= x288 <= 1
 0 <= x289 <= 1
 0 <= x290 <= 1
 0 <= x291 <= 1
 0 <= x292 <= 1
 0 <= x293 <= 1
 0 <= x294 <= 1
 0 <= x295 <= 1
 0 <= x296 <= 1
 0 <= x297 <= 1
 0 <= x298 <= 1
 0 <= x299 <= 1
 0 <= x300 <= 1
 0 <= x301 <= 1
 0 <= x302 <= 1
 0 <= x303 <= 1
 0 <= x304 <= 1
 0 <= x305 <= 1
 0 <= x306 <= 1
 0 <= x307 <= 1
 0 <= x308 <= 1
 0 <= x309 <= 1
 0 <= x310 <= 1
 0 <= x311 <= 1
 0 <= x312 <= 1
 0 <= x313 <= 1
 0 <= x314 <= 1
 0 <= x315 <= 1
 0 <= x316 <= 1
 0 <= x317 <= 1
 0 <= x318 <= 1
 0 <= x319 <= 1
 0 <= x320 <= 1
 0 <= x321 <= 1
 0 <= x322 <= 1
 0 <= x323 <= 1
 0 <= x324 <= 1
 0 <= x325 <= 1
 0 <= x326 <= 1
 0 <= x327 <= 1
 0 <= x328 <= 1
 0 <= x329 <= 1
 0 <= x330 <= 1
 0 <= x331 <= 1
 0 <= x332 <= 1
 0 <= x333 <= 1
 0 <= x334 <= 1
 0 <= x335 <= 1
 0 <= x336 <= 1
 0 <= x337 <= 1
 0 <= x338 <= 1
 0 <= x339 <= 1
 0 <= x340 <= 1
 0 <= x341 <= 1
 0 <= x342 <= 1
 0 <= x343 <= 1
 0 <= x344 <= 1
 0 <= x345 <= 1
 0 <= x346 <= 1
 0 <= x347 <= 1
 0 <= x348 <= 1
 0 <= x349 <= 1
 0 <= x350 <= 1
 0 <= x351 <= 1
 0 <= x352 <= 1
 0 <= x353 <= 1
 0 <= x354 <= 1
 0 <= x355 <= 1
 0 <= x356 <= 1
 0 <= x357 <= 1
 0 <= x358 <= 1
 0 <= x359 <= 1
 0 <= x360 <= 1
 0 <= x361 <= 1
 0 <= x362 <= 1
 0 <= x363 <= 1
 0 <= x364 <= 1
 0 <= x365 <= 1
 0 <= x366 <= 1
 0 <= x367 <= 1
 0 <= x368 <= 1
 0 <= x369 <= 1
 0 <= x370 <= 1
 0 <= x371 <= 1
 0 <= x372 <= 1
 0 <= x373 <= 1
 0 <= x374 <= 1
 0 <= x375 <= 1
 0 <= x376 <= 1
 0 <= x377 <= 1
 0 <= x378 <= 1
 0 <= x379 <= 1
 0 <= x380 <= 1
 0 <= x381 <= 1
 0 <= x382 <= 1
 0 <= x383 <= 1
 0 <= x384 <= 1
 0 <= x385 <= 1
 0 <= x386 <= 1
 0 <= x387 <= 1
 0 <= x388 <= 1
 0 <= x389 <= 1
 0 <= x390 <= 1
 0 <= x391 <= 1
 0 <= x392 <= 1
 0 <= x393 <= 1
 0 <= x394 <= 1
 0 <= x395 <= 1
 0 <= x396 <= 1
 0 <= x397 <= 1
 0 <= x398 <= 1
 0 <= x399 <= 1
 0 <= x400 <= 1
 0 <= x401 <= 1
 0 <= x402 <= 1
 0 <= x403 <= 1
 0 <= x404 <= 1
 0 <= x405 <= 1
 0 <= x406 <= 1
 0 <= x407 <= 1
 0 <= x408 <= 1
 0 <= x409 <= 1
 0 <= x410 <= 1
 0 <= x411 <= 1
 0 <= x412 <= 1
 0 <= x413 <= 1
 0 <= x414 <= 1
 0 <= x415 <= 1
 0 <= x416 <= 1
 0 <= x417 <= 1
 0 <= x418 <= 1
 0 <= x419 <= 1
 0 <= x420 <= 1
 0 <= x421 <= 1
 0 <= x422 <= 1
 0 <= x423 <= 1
 0 <= x424 <= 1
 0 <= x425 <= 1
 0 <= x426 <= 1
 0 <= x427 <= 1
 0 <= x428 <= 1
 0 <= x429 <= 1
 0 <= x430 <= 1
 0 <= x431 <= 1
 0 <= x432 <= 1
 0 <= x433 <= 1
 0 <= x434 <= 1
 0 <= x435 <= 1
 0 <= x436 <= 1
 0 <= x437 <= 1
 0 <= x438 <= 1
 0 <= x439 <= 1
 0 <= x440 <= 1
 0 <= x441 <= 1
 0 <= x442 <= 1
 0 <= x443 <= 1
 0 <= x444 <= 1
 0 <= x445 <= 1
 0 <= x446 <= 1
 0 <= x447 <= 1
 0 <= x448 <= 1
 0 <= x449 <= 1
 0 <= x450 <= 1
 0 <= x451 <= 1
 0 <= x452 <= 1
 0 <= x453 <= 1
 0 <= x454 <= 1
 0 <= x455 <= 1
 0 <= x456 <= 1
 0 <= x457 <= 1
 0 <= x458 <= 1
 0 <= x459 <= 1
 0 <= x460 <= 1
 0 <= x461 <= 1
 0 <= x462 <= 1
 0 <= x463 <= 1
 0 <= x464 <= 1
 0 <= x465 <= 1
 0 <= x466 <= 1
 0 <= x467 <= 1
 0 <= x468 <= 1
 0 <= x469 <= 1
 0 <= x470 <= 1
 0 <= x471 <= 1
 0 <= x472 <= 1
 0 <= x473 <= 1
 0 <= x474 <= 1
 0 <= x475 <= 1
 0 <= x476 <= 1
 0 <= x477 <= 1
 0 <= x478 <= 1
 0 <= x479 <= 1
 0 <= x480 <= 1
 0 <= x481 <= 1
 0 <= x482 <= 1
 0 <= x483 <= 1
 0 <= x484 <= 1
 0 <= x485 <= 1
 0 <= x486 <= 1
 0 <= x487 <= 1
 0 <= x488 <= 1
 0 <= x489 <= 1
 0 <= x490 <= 1
 0 <= x491 <= 1
 0 <= x492 <= 1
 0 <= x493 <= 1
 0 <= x494 <= 1
 0 <= x495 <= 1
 0 <= x496 <= 1
 0 <= x497 <= 1
 0 <= x498 <= 1
 0 <= x499 <= 1
 0 <= x500 <= 1
 0 <= x501 <= 1
 0 <= x502 <= 1
 0 <= x503 <= 1
 0 <= x504 <= 1
 0 <= x505 <= 1
 0 <= x506 <= 1
 0 <= x507 <= 1
 0 <= x508 <= 1
 0 <= x509 <= 1
 0 <= x510 <= 1
 0 <= x511 <= 1
 0 <= x512 <= 1
 0 <= x513 <= 1
 0 <= x514 <= 1
 0 <= x515 <= 1
 0 <= x516 <= 1
 0 <= x517 <= 1
 0 <= x518 <= 1
 0 <= x519 <= 1
 0 <= x520 <= 1
 0 <= x521 <= 1
 0 <= x522 <= 1
 0 <= x523 <= 1
 0 <= x524 <= 1
 0 <= x525 <= 1
 0 <= x526 <= 1
 0 <= x527 <= 1
 0 <= x528 <= 1
 0 <= x529 <= 1
 0 <= x530 <= 1
 0 <= x531 <= 1
 0 <= x532 <= 1
 0 <= x533 <= 1
 0 <= x534 <= 1
 0 <= x535 <= 1
 0 <= x536 <= 1
 0 <= x537 <= 1
 0 <= x538 <= 1
 0 <= x539 <= 1
 0 <= x540 <= 1
 0 <= x541 <= 1
 0 <= x542 <= 1
 0 <= x543 <= 1
 0 <= x544 <= 1
 0 <= x545 <= 1
 0 <= x546 <= 1
 0 <= x547 <= 1
 0 <= x548 <= 1
 0 <= x549 <= 1
 0 <= x550 <= 1
Binaries
 x501  x502  x503  x504  x505  x506  x507  x508  x509  x510  x511  x512  x513 
 x514  x515  x516  x517  x518  x519  x520  x521  x522  x523  x524  x525  x526 
 x527  x528  x529  x530  x531  x532  x533  x534  x535  x536  x537  x538  x539 
 x540  x541  x542  x543  x544  x545  x546  x547  x548  x549  x550 
End
